solution status: optimal solution found
objective value:                        39451.3944136
x14                                                 1 	(obj:1e-05)
x15                                                 1 	(obj:1e-05)
x16                                                 1 	(obj:1e-05)
x19                                                 1 	(obj:1e-05)
x47                                                 1 	(obj:1e-05)
x59                                                 1 	(obj:1e-05)
x60                                                 1 	(obj:1e-05)
x65                                                 1 	(obj:1e-05)
x80                                                 1 	(obj:1e-05)
x86                                                 1 	(obj:1e-05)
x111                                                1 	(obj:1e-05)
x120                                                1 	(obj:1e-05)
x122                                                1 	(obj:1e-05)
x142                                                1 	(obj:1e-05)
x147                                                1 	(obj:1e-05)
x151                                    39451.3942636 	(obj:1)
